c Created with the Wolfram Language : www.wolfram.com
c 
p edge 100 691
e 1 3
e 1 4
e 2 7
e 3 7
e 4 7
e 7 8
e 6 9
e 7 9
e 1 11
e 3 11
e 9 11
e 5 14
e 14 15
e 5 17
e 8 17
e 11 17
e 12 17
e 13 17
e 16 17
e 2 18
e 6 18
e 10 18
e 14 18
e 14 19
e 1 20
e 5 20
e 6 20
e 7 20
e 14 20
e 15 20
e 19 20
e 2 21
e 8 21
e 6 22
e 16 22
e 6 23
e 17 23
e 3 24
e 6 24
e 11 24
e 15 24
e 16 24
e 21 24
e 1 25
e 16 25
e 1 26
e 3 26
e 14 26
e 15 26
e 19 26
e 7 27
e 25 27
e 26 27
e 7 28
e 16 28
e 25 28
e 1 29
e 2 29
e 18 29
e 21 29
e 2 30
e 6 30
e 12 30
e 16 30
e 17 30
e 7 31
e 13 31
e 26 31
e 27 31
e 28 31
e 1 32
e 10 33
e 29 33
e 10 34
e 19 34
e 27 34
e 28 34
e 15 35
e 17 35
e 22 35
e 31 35
e 2 36
e 15 36
e 3 37
e 24 37
e 26 37
e 34 37
e 2 38
e 4 38
e 10 38
e 14 38
e 16 38
e 17 38
e 30 38
e 3 39
e 6 39
e 30 39
e 9 40
e 12 40
e 26 40
e 27 40
e 28 40
e 31 40
e 38 40
e 12 41
e 13 41
e 14 41
e 21 41
e 1 42
e 7 42
e 8 42
e 14 42
e 25 42
e 26 42
e 28 42
e 33 42
e 38 42
e 6 43
e 18 43
e 22 43
e 35 43
e 39 43
e 25 44
e 28 44
e 29 44
e 35 44
e 39 44
e 40 44
e 1 45
e 4 45
e 7 45
e 8 45
e 15 45
e 20 45
e 37 45
e 41 45
e 5 46
e 7 46
e 9 46
e 23 46
e 27 46
e 33 46
e 39 46
e 43 46
e 5 47
e 19 47
e 25 47
e 28 47
e 32 47
e 44 47
e 2 48
e 5 48
e 6 48
e 19 48
e 22 48
e 36 48
e 7 49
e 12 49
e 23 49
e 25 49
e 29 49
e 10 50
e 12 50
e 18 50
e 20 50
e 22 50
e 29 50
e 38 50
e 3 51
e 6 51
e 7 51
e 10 51
e 16 51
e 18 51
e 19 51
e 21 51
e 22 51
e 25 51
e 28 51
e 45 51
e 48 51
e 8 52
e 29 52
e 35 52
e 38 52
e 4 53
e 8 53
e 9 53
e 19 53
e 22 53
e 35 53
e 40 53
e 41 53
e 44 53
e 49 53
e 3 54
e 4 54
e 11 54
e 27 54
e 28 54
e 31 54
e 37 54
e 41 54
e 44 54
e 47 54
e 3 55
e 15 55
e 17 55
e 20 55
e 25 55
e 51 55
e 54 55
e 3 56
e 8 56
e 14 56
e 15 56
e 25 56
e 26 56
e 28 56
e 30 56
e 37 56
e 42 56
e 46 56
e 48 56
e 49 56
e 2 57
e 10 57
e 23 57
e 27 57
e 28 57
e 30 57
e 33 57
e 40 57
e 47 57
e 48 57
e 1 58
e 3 58
e 17 58
e 21 58
e 25 58
e 35 58
e 45 58
e 47 58
e 50 58
e 53 58
e 15 59
e 16 59
e 18 59
e 20 59
e 29 59
e 33 59
e 45 59
e 47 59
e 48 59
e 53 59
e 1 60
e 5 60
e 6 60
e 8 60
e 17 60
e 34 60
e 35 60
e 37 60
e 39 60
e 41 60
e 46 60
e 12 61
e 17 61
e 27 61
e 33 61
e 35 61
e 40 61
e 41 61
e 55 61
e 57 61
e 14 62
e 23 62
e 28 62
e 29 62
e 34 62
e 38 62
e 47 62
e 58 62
e 11 63
e 15 63
e 28 63
e 31 63
e 37 63
e 59 63
e 21 64
e 29 64
e 40 64
e 52 64
e 56 64
e 59 64
e 61 64
e 62 64
e 3 65
e 13 65
e 19 65
e 31 65
e 46 65
e 49 65
e 19 66
e 26 66
e 28 66
e 34 66
e 37 66
e 39 66
e 49 66
e 56 66
e 61 66
e 62 66
e 9 67
e 12 67
e 14 67
e 25 67
e 30 67
e 38 67
e 3 68
e 6 68
e 13 68
e 20 68
e 26 68
e 31 68
e 41 68
e 42 68
e 52 68
e 62 68
e 31 69
e 35 69
e 52 69
e 53 69
e 4 70
e 11 70
e 26 70
e 33 70
e 36 70
e 40 70
e 44 70
e 55 70
e 57 70
e 6 71
e 9 71
e 12 71
e 21 71
e 36 71
e 59 71
e 62 71
e 65 71
e 2 72
e 5 72
e 33 72
e 34 72
e 43 72
e 61 72
e 62 72
e 64 72
e 71 72
e 4 73
e 50 73
e 61 73
e 63 73
e 64 73
e 69 73
e 72 73
e 13 74
e 19 74
e 24 74
e 27 74
e 34 74
e 35 74
e 42 74
e 44 74
e 48 74
e 55 74
e 65 74
e 68 74
e 3 75
e 6 75
e 19 75
e 24 75
e 36 75
e 40 75
e 44 75
e 45 75
e 49 75
e 51 75
e 62 75
e 68 75
e 13 76
e 14 76
e 19 76
e 42 76
e 53 76
e 60 76
e 63 76
e 74 76
e 1 77
e 9 77
e 11 77
e 13 77
e 17 77
e 24 77
e 29 77
e 30 77
e 32 77
e 43 77
e 49 77
e 53 77
e 7 78
e 9 78
e 23 78
e 26 78
e 47 78
e 59 78
e 61 78
e 76 78
e 1 79
e 10 79
e 15 79
e 17 79
e 23 79
e 26 79
e 40 79
e 41 79
e 44 79
e 45 79
e 48 79
e 54 79
e 59 79
e 67 79
e 68 79
e 73 79
e 76 79
e 6 80
e 11 80
e 14 80
e 15 80
e 21 80
e 22 80
e 58 80
e 63 80
e 77 80
e 3 81
e 5 81
e 7 81
e 44 81
e 49 81
e 50 81
e 56 81
e 20 82
e 23 82
e 26 82
e 29 82
e 34 82
e 36 82
e 39 82
e 42 82
e 57 82
e 61 82
e 75 82
e 20 83
e 32 83
e 36 83
e 40 83
e 53 83
e 54 83
e 55 83
e 60 83
e 69 83
e 72 83
e 78 83
e 81 83
e 82 83
e 8 84
e 16 84
e 17 84
e 25 84
e 27 84
e 29 84
e 35 84
e 52 84
e 57 84
e 60 84
e 63 84
e 82 84
e 2 85
e 3 85
e 5 85
e 10 85
e 12 85
e 20 85
e 21 85
e 33 85
e 46 85
e 55 85
e 66 85
e 70 85
e 3 86
e 6 86
e 32 86
e 33 86
e 40 86
e 42 86
e 45 86
e 65 86
e 67 86
e 77 86
e 28 87
e 50 87
e 52 87
e 55 87
e 59 87
e 61 87
e 82 87
e 1 88
e 9 88
e 10 88
e 13 88
e 15 88
e 18 88
e 26 88
e 27 88
e 41 88
e 42 88
e 46 88
e 56 88
e 62 88
e 66 88
e 69 88
e 72 88
e 82 88
e 85 88
e 20 89
e 23 89
e 30 89
e 32 89
e 36 89
e 37 89
e 41 89
e 45 89
e 50 89
e 52 89
e 54 89
e 56 89
e 58 89
e 59 89
e 63 89
e 66 89
e 73 89
e 85 89
e 86 89
e 1 90
e 18 90
e 21 90
e 27 90
e 34 90
e 37 90
e 59 90
e 4 91
e 8 91
e 19 91
e 29 91
e 37 91
e 39 91
e 46 91
e 49 91
e 50 91
e 60 91
e 63 91
e 71 91
e 78 91
e 17 92
e 41 92
e 43 92
e 44 92
e 48 92
e 49 92
e 57 92
e 59 92
e 76 92
e 77 92
e 87 92
e 1 93
e 4 93
e 19 93
e 24 93
e 29 93
e 30 93
e 36 93
e 38 93
e 42 93
e 61 93
e 72 93
e 92 93
e 5 94
e 18 94
e 30 94
e 31 94
e 32 94
e 35 94
e 36 94
e 38 94
e 48 94
e 55 94
e 75 94
e 76 94
e 77 94
e 79 94
e 82 94
e 3 95
e 8 95
e 10 95
e 13 95
e 14 95
e 24 95
e 34 95
e 35 95
e 40 95
e 43 95
e 47 95
e 50 95
e 55 95
e 57 95
e 58 95
e 6 96
e 9 96
e 11 96
e 15 96
e 22 96
e 39 96
e 46 96
e 56 96
e 57 96
e 59 96
e 67 96
e 72 96
e 83 96
e 94 96
e 95 96
e 10 97
e 11 97
e 18 97
e 25 97
e 26 97
e 29 97
e 40 97
e 52 97
e 56 97
e 57 97
e 59 97
e 73 97
e 75 97
e 76 97
e 83 97
e 93 97
e 14 98
e 17 98
e 27 98
e 32 98
e 33 98
e 36 98
e 55 98
e 57 98
e 64 98
e 72 98
e 82 98
e 16 99
e 21 99
e 27 99
e 31 99
e 43 99
e 52 99
e 54 99
e 65 99
e 70 99
e 75 99
e 90 99
e 98 99
e 3 100
e 24 100
e 25 100
e 28 100
e 30 100
e 31 100
e 40 100
e 56 100
e 75 100
e 82 100
e 99 100
